33D32945 STP File, STP Format Version 1.0

SECTION Comments
Name "edge_n11_d3_s48"
Problem "Euclidean Steiner Tree Problem"
Remark "Generated with STPGenerator. 3 dimensions."
END

SECTION Graph
Nodes 11
END

SECTION Coordinates
DDD 0 0.6838657743 0.6838657743 0.6838657743
DDD 1 0.3087545369 0.3087545369 0.3087545369
DDD 2 0.0063704299 0.0063704299 0.0063704299
DDD 3 0.3432311920 0.3432311920 0.3432311920
DDD 4 0.8108547613 0.8108547613 0.8108547613
DDD 5 0.5749283333 0.5749283333 0.5749283333
DDD 6 0.3027468763 0.3027468763 0.3027468763
DDD 7 0.1342774458 0.1342774458 0.1342774458
DDD 8 0.6345026189 0.6345026189 0.6345026189
DDD 9 0.0329879546 0.0329879546 0.0329879546
DDD 10 0.4224220134 0.4224220134 0.4224220134
END
